Geographic Exponential Decay
80 260 28 268 256 2 160 173 282 191 25 271 73 267 306 257 175 301 15 96 133 189 197 243 11 277 23 77 110 37 176 194 98 70 46 162 302 230 90 221 35 74 84 206 269 92 236 157 228 54 114 115 126 93 232 304 193 45 168 165 184 237 108 289 172 259 131 124 308 166 91 79 78 318 183 245 198 152 231 59 112
p edge 320 1318
e 0 179 2.0
e 1 22 4.0
e 2 317 27.0
e 2 290 66.0
e 2 62 4.0
e 2 186 1.0
e 2 308 53.0
e 2 179 62.0
e 2 120 73.0
e 2 182 99.0
e 2 232 19.0
e 2 13 28.0
e 2 112 10.0
e 2 225 12.0
e 2 117 93.0
e 2 146 96.0
e 2 174 90.0
e 2 277 18.0
e 2 45 55.0
e 3 94 1.0
e 4 260 98.0
e 5 240 4.0
e 6 90 31.0
e 7 99 4.0
e 8 169 5.0
e 8 267 5.0
e 9 221 15.0
e 9 45 11.0
e 10 246 24.0
e 10 42 2.0
e 10 93 49.0
e 10 307 3.0
e 10 13 13.0
e 11 130 89.0
e 11 104 2.0
e 11 71 39.0
e 11 250 50.0
e 11 294 77.0
e 11 257 19.0
e 11 93 94.0
e 11 225 86.0
e 11 281 1.0
e 11 49 76.0
e 11 206 12.0
e 11 94 24.0
e 11 205 9.0
e 11 6 5.0
e 11 80 40.0
e 11 174 79.0
e 11 307 3.0
e 12 255 1.0
e 13 307 1.0
e 14 108 60.0
e 15 268 64.0
e 15 100 88.0
e 15 145 68.0
e 15 119 100.0
e 15 223 51.0
e 15 147 76.0
e 15 54 69.0
e 15 131 93.0
e 15 48 5.0
e 15 279 70.0
e 15 260 55.0
e 15 149 21.0
e 15 187 72.0
e 15 156 84.0
e 15 60 81.0
e 15 117 41.0
e 15 136 10.0
e 16 297 2.0
e 16 150 2.0
e 17 167 4.0
e 18 20 6.0
e 18 173 5.0
e 18 206 71.0
e 19 58 11.0
e 19 90 74.0
e 21 108 93.0
e 21 303 1.0
e 22 258 6.0
e 23 192 63.0
e 23 307 59.0
e 23 188 66.0
e 23 223 70.0
e 23 282 72.0
e 23 317 70.0
e 23 120 21.0
e 23 259 67.0
e 23 141 3.0
e 23 249 77.0
e 23 305 15.0
e 23 43 36.0
e 23 298 46.0
e 23 131 45.0
e 23 34 14.0
e 23 154 79.0
e 23 274 42.0
e 24 156 1.0
e 25 234 18.0
e 25 61 37.0
e 25 7 61.0
e 25 181 60.0
e 25 107 20.0
e 25 260 11.0
e 25 212 15.0
e 25 288 51.0
e 25 225 41.0
e 25 197 96.0
e 25 0 2.0
e 25 214 67.0
e 25 213 7.0
e 25 57 53.0
e 25 218 72.0
e 25 316 38.0
e 25 286 96.0
e 26 300 1.0
e 27 132 6.0
e 27 58 8.0
e 28 96 1.0
e 28 260 99.0
e 28 196 9.0
e 28 95 35.0
e 28 124 49.0
e 28 298 34.0
e 28 128 25.0
e 28 90 32.0
e 28 211 96.0
e 28 38 43.0
e 28 103 74.0
e 28 184 85.0
e 28 291 9.0
e 28 50 85.0
e 28 150 61.0
e 28 225 25.0
e 28 186 19.0
e 29 60 11.0
e 29 288 9.0
e 29 111 11.0
e 30 201 4.0
e 31 212 7.0
e 31 21 8.0
e 31 110 24.0
e 31 295 11.0
e 31 120 17.0
e 31 283 1.0
e 31 268 44.0
e 31 29 39.0
e 31 273 48.0
e 32 156 11.0
e 33 101 4.0
e 33 197 16.0
e 35 317 31.0
e 35 223 72.0
e 35 224 6.0
e 35 293 96.0
e 35 13 3.0
e 35 266 89.0
e 35 17 47.0
e 35 37 78.0
e 35 8 98.0
e 35 59 15.0
e 35 312 37.0
e 35 53 85.0
e 35 9 30.0
e 35 0 10.0
e 35 217 65.0
e 35 33 37.0
e 35 297 82.0
e 36 56 1.0
e 37 203 84.0
e 37 208 58.0
e 37 93 13.0
e 37 92 10.0
e 37 271 76.0
e 37 55 43.0
e 37 169 24.0
e 37 187 16.0
e 37 65 68.0
e 37 284 85.0
e 37 6 66.0
e 37 126 75.0
e 37 267 29.0
e 37 313 63.0
e 37 52 100.0
e 37 59 63.0
e 39 294 4.0
e 40 236 2.0
e 41 308 73.0
e 43 157 6.0
e 44 262 4.0
e 44 280 7.0
e 44 184 15.0
e 45 34 98.0
e 45 140 48.0
e 45 80 82.0
e 45 70 35.0
e 45 144 6.0
e 45 10 89.0
e 45 291 48.0
e 45 205 36.0
e 45 268 71.0
e 45 245 36.0
e 45 61 21.0
e 45 202 71.0
e 45 3 81.0
e 45 280 31.0
e 45 190 9.0
e 46 58 74.0
e 46 141 95.0
e 46 4 17.0
e 46 169 27.0
e 46 97 80.0
e 46 222 36.0
e 46 37 1.0
e 46 70 83.0
e 46 202 100.0
e 46 44 38.0
e 46 142 60.0
e 46 301 12.0
e 46 83 70.0
e 46 238 71.0
e 46 84 51.0
e 46 94 15.0
e 46 140 91.0
e 47 59 1.0
e 48 315 6.0
e 51 8 12.0
e 51 313 10.0
e 51 45 84.0
e 51 241 1.0
e 51 160 72.0
e 52 68 1.0
e 53 12 1.0
e 54 263 20.0
e 54 89 31.0
e 54 301 65.0
e 54 169 50.0
e 54 254 14.0
e 54 53 6.0
e 54 103 80.0
e 54 176 56.0
e 54 52 80.0
e 54 32 59.0
e 54 315 98.0
e 54 191 22.0
e 54 10 66.0
e 54 198 15.0
e 54 173 59.0
e 54 23 71.0
e 55 314 2.0
e 58 197 34.0
e 58 308 8.0
e 59 308 31.0
e 59 21 73.0
e 59 7 14.0
e 59 105 70.0
e 59 4 77.0
e 59 60 1.0
e 59 289 52.0
e 59 140 12.0
e 59 254 31.0
e 59 286 22.0
e 59 265 71.0
e 59 120 59.0
e 59 228 62.0
e 59 65 71.0
e 61 32 27.0
e 61 17 34.0
e 61 276 24.0
e 61 300 18.0
e 61 22 22.0
e 61 287 37.0
e 61 80 34.0
e 63 183 40.0
e 64 189 73.0
e 65 23 36.0
e 66 120 1.0
e 67 237 33.0
e 69 208 4.0
e 70 179 82.0
e 70 102 16.0
e 70 173 79.0
e 70 318 30.0
e 70 30 21.0
e 70 65 17.0
e 70 50 8.0
e 70 93 26.0
e 70 290 22.0
e 70 128 76.0
e 70 319 51.0
e 70 280 10.0
e 70 242 82.0
e 70 183 24.0
e 70 38 91.0
e 71 197 24.0
e 71 300 5.0
e 72 44 5.0
e 73 253 87.0
e 73 161 18.0
e 73 78 8.0
e 73 299 72.0
e 73 215 3.0
e 73 308 46.0
e 73 216 41.0
e 73 256 66.0
e 73 143 13.0
e 73 199 94.0
e 73 66 58.0
e 73 228 61.0
e 73 156 59.0
e 73 21 63.0
e 73 190 56.0
e 73 115 48.0
e 73 310 63.0
e 74 41 26.0
e 74 234 36.0
e 74 10 37.0
e 74 158 90.0
e 74 312 87.0
e 74 75 56.0
e 74 143 96.0
e 74 25 19.0
e 74 249 56.0
e 74 154 17.0
e 74 288 14.0
e 74 89 29.0
e 74 308 62.0
e 74 183 58.0
e 74 61 43.0
e 74 160 35.0
e 74 110 23.0
e 76 279 4.0
e 77 19 89.0
e 77 96 13.0
e 77 103 81.0
e 77 74 54.0
e 77 27 6.0
e 77 292 49.0
e 77 258 82.0
e 77 25 50.0
e 77 266 79.0
e 77 163 9.0
e 77 242 27.0
e 77 94 43.0
e 77 213 30.0
e 77 261 38.0
e 77 100 10.0
e 77 89 31.0
e 77 166 20.0
e 78 128 67.0
e 78 201 79.0
e 78 196 36.0
e 78 214 69.0
e 78 9 39.0
e 78 271 94.0
e 78 308 19.0
e 78 98 89.0
e 78 31 64.0
e 78 218 23.0
e 78 300 79.0
e 78 269 69.0
e 78 17 20.0
e 78 137 76.0
e 78 251 96.0
e 78 74 30.0
e 79 238 92.0
e 79 183 100.0
e 79 105 8.0
e 79 258 23.0
e 79 58 42.0
e 79 63 46.0
e 79 161 80.0
e 79 51 50.0
e 79 226 46.0
e 79 20 16.0
e 79 152 71.0
e 79 267 83.0
e 79 216 16.0
e 79 122 77.0
e 79 175 82.0
e 79 190 40.0
e 79 266 24.0
e 81 80 6.0
e 81 129 2.0
e 82 148 9.0
e 83 28 11.0
e 84 174 42.0
e 84 100 71.0
e 84 22 72.0
e 84 114 78.0
e 84 177 73.0
e 84 244 35.0
e 84 146 36.0
e 84 66 4.0
e 84 200 34.0
e 84 166 60.0
e 84 18 70.0
e 84 111 27.0
e 84 228 15.0
e 84 236 83.0
e 84 48 83.0
e 84 231 78.0
e 85 109 5.0
e 85 187 7.0
e 85 138 10.0
e 86 140 2.0
e 87 232 8.0
e 88 13 5.0
e 88 285 5.0
e 88 58 12.0
e 89 244 24.0
e 89 236 20.0
e 90 101 45.0
e 90 40 33.0
e 90 245 45.0
e 90 275 32.0
e 90 77 83.0
e 90 33 83.0
e 90 300 2.0
e 90 56 54.0
e 90 81 77.0
e 90 87 84.0
e 90 201 91.0
e 90 173 55.0
e 90 161 96.0
e 90 266 49.0
e 91 93 68.0
e 91 165 57.0
e 91 42 94.0
e 91 60 42.0
e 91 0 100.0
e 91 33 79.0
e 91 149 54.0
e 91 107 83.0
e 91 29 74.0
e 91 297 41.0
e 91 137 71.0
e 91 210 5.0
e 91 225 19.0
e 91 53 20.0
e 91 65 23.0
e 91 170 31.0
e 91 8 46.0
e 92 188 56.0
e 92 262 83.0
e 92 219 95.0
e 92 278 9.0
e 92 304 33.0
e 92 209 38.0
e 92 96 94.0
e 92 143 28.0
e 92 293 59.0
e 92 71 31.0
e 92 15 77.0
e 92 50 79.0
e 92 45 74.0
e 92 165 79.0
e 92 243 62.0
e 92 146 40.0
e 93 301 2.0
e 93 228 55.0
e 93 48 55.0
e 93 38 22.0
e 93 191 69.0
e 93 44 56.0
e 93 284 44.0
e 93 221 93.0
e 93 82 63.0
e 93 132 70.0
e 93 81 88.0
e 93 205 26.0
e 95 302 55.0
e 95 201 1.0
e 96 192 33.0
e 96 173 50.0
e 96 104 68.0
e 96 278 90.0
e 96 271 74.0
e 96 265 50.0
e 96 272 47.0
e 96 138 14.0
e 96 98 46.0
e 96 216 34.0
e 96 219 14.0
e 96 259 71.0
e 96 81 61.0
e 96 277 94.0
e 97 257 77.0
e 98 45 2.0
e 98 172 98.0
e 98 227 58.0
e 98 236 41.0
e 98 61 77.0
e 98 258 11.0
e 98 154 63.0
e 98 201 76.0
e 98 62 48.0
e 98 297 13.0
e 98 200 49.0
e 98 27 9.0
e 98 152 46.0
e 98 122 9.0
e 98 143 70.0
e 99 9 1.0
e 102 278 5.0
e 106 86 1.0
e 108 220 10.0
e 108 84 68.0
e 108 218 10.0
e 108 223 65.0
e 108 267 69.0
e 108 131 31.0
e 108 211 14.0
e 108 202 54.0
e 108 23 22.0
e 108 195 90.0
e 108 114 50.0
e 108 28 94.0
e 108 67 6.0
e 108 7 75.0
e 108 5 46.0
e 109 180 5.0
e 109 269 83.0
e 110 308 92.0
e 110 164 91.0
e 110 151 25.0
e 110 86 37.0
e 110 310 60.0
e 110 116 18.0
e 110 1 2.0
e 110 11 99.0
e 110 252 83.0
e 110 119 2.0
e 110 309 64.0
e 110 206 64.0
e 110 196 78.0
e 110 236 34.0
e 110 4 32.0
e 112 236 85.0
e 112 132 29.0
e 112 140 9.0
e 112 313 48.0
e 112 48 90.0
e 112 212 22.0
e 112 98 60.0
e 112 246 65.0
e 112 192 14.0
e 112 240 91.0
e 112 121 25.0
e 112 239 46.0
e 112 104 62.0
e 112 226 73.0
e 112 145 51.0
e 112 263 95.0
e 113 262 3.0
e 113 128 9.0
e 113 144 6.0
e 114 315 80.0
e 114 103 57.0
e 114 207 18.0
e 114 85 49.0
e 114 49 83.0
e 114 192 91.0
e 114 24 80.0
e 114 281 34.0
e 114 71 6.0
e 114 232 86.0
e 114 287 34.0
e 114 316 91.0
e 114 22 45.0
e 114 13 55.0
e 114 148 92.0
e 115 12 34.0
e 115 225 28.0
e 115 276 86.0
e 115 306 93.0
e 115 78 20.0
e 115 133 67.0
e 115 199 38.0
e 115 200 33.0
e 115 252 44.0
e 115 24 32.0
e 115 282 78.0
e 115 218 57.0
e 115 1 95.0
e 115 216 90.0
e 115 74 73.0
e 115 142 48.0
e 118 233 21.0
e 118 121 1.0
e 118 232 48.0
e 118 289 5.0
e 118 306 60.0
e 119 35 76.0
e 122 14 9.0
e 123 43 7.0
e 123 193 28.0
e 123 11 15.0
e 124 216 70.0
e 124 157 17.0
e 124 24 59.0
e 124 257 61.0
e 124 161 90.0
e 124 144 42.0
e 124 261 56.0
e 124 62 70.0
e 124 46 95.0
e 124 49 85.0
e 124 259 41.0
e 124 186 55.0
e 124 238 47.0
e 124 250 41.0
e 124 242 52.0
e 124 181 99.0
e 125 133 1.0
e 125 155 36.0
e 125 224 20.0
e 125 72 14.0
e 125 212 3.0
e 125 82 4.0
e 125 25 19.0
e 125 186 45.0
e 125 94 5.0
e 126 75 61.0
e 126 26 32.0
e 126 20 9.0
e 126 308 75.0
e 126 306 70.0
e 126 226 11.0
e 126 190 40.0
e 126 148 36.0
e 126 275 50.0
e 126 237 64.0
e 126 117 48.0
e 126 19 32.0
e 126 27 67.0
e 126 97 16.0
e 126 127 47.0
e 126 110 95.0
e 130 215 2.0
e 131 183 3.0
e 131 188 53.0
e 131 168 3.0
e 131 298 48.0
e 131 127 23.0
e 131 20 79.0
e 131 259 54.0
e 131 221 2.0
e 131 205 52.0
e 131 26 1.0
e 131 104 16.0
e 131 257 19.0
e 131 262 31.0
e 131 123 40.0
e 133 126 94.0
e 133 276 4.0
e 133 281 48.0
e 133 230 46.0
e 133 233 30.0
e 133 88 18.0
e 133 122 12.0
e 133 235 100.0
e 133 131 56.0
e 133 184 41.0
e 133 193 21.0
e 133 177 33.0
e 133 141 20.0
e 133 26 86.0
e 133 150 95.0
e 134 28 10.0
e 134 230 11.0
e 135 144 1.0
e 139 189 14.0
e 147 76 6.0
e 152 197 70.0
e 152 258 79.0
e 152 54 36.0
e 152 251 77.0
e 152 296 7.0
e 152 213 22.0
e 152 273 51.0
e 152 224 98.0
e 152 160 97.0
e 152 311 66.0
e 152 298 9.0
e 152 122 58.0
e 152 312 58.0
e 152 191 5.0
e 152 203 13.0
e 153 193 99.0
e 157 123 24.0
e 157 82 91.0
e 157 288 32.0
e 157 223 24.0
e 157 162 2.0
e 157 151 37.0
e 157 72 33.0
e 157 71 8.0
e 157 289 84.0
e 157 207 60.0
e 157 135 82.0
e 157 295 4.0
e 157 285 52.0
e 157 195 92.0
e 157 166 70.0
e 158 154 10.0
e 158 75 4.0
e 159 305 5.0
e 159 231 51.0
e 160 121 61.0
e 160 36 16.0
e 160 265 28.0
e 160 153 33.0
e 160 50 88.0
e 160 186 55.0
e 160 29 93.0
e 160 251 85.0
e 160 282 30.0
e 160 103 33.0
e 160 49 100.0
e 160 76 55.0
e 160 119 65.0
e 160 264 30.0
e 162 207 78.0
e 162 254 8.0
e 162 189 53.0
e 162 280 14.0
e 162 312 91.0
e 162 135 10.0
e 162 6 33.0
e 162 205 76.0
e 162 52 78.0
e 162 295 27.0
e 162 239 8.0
e 162 101 87.0
e 162 123 81.0
e 162 105 51.0
e 162 15 68.0
e 162 64 19.0
e 165 267 73.0
e 165 51 47.0
e 165 301 13.0
e 165 145 7.0
e 165 194 95.0
e 165 314 93.0
e 165 141 86.0
e 165 118 38.0
e 165 62 64.0
e 165 95 26.0
e 165 151 98.0
e 165 203 86.0
e 165 259 53.0
e 165 124 71.0
e 165 121 13.0
e 166 253 14.0
e 166 72 54.0
e 166 292 69.0
e 166 251 79.0
e 166 208 59.0
e 166 219 65.0
e 166 286 99.0
e 166 79 91.0
e 166 30 87.0
e 166 67 89.0
e 166 213 9.0
e 166 248 2.0
e 166 51 18.0
e 166 273 48.0
e 167 130 1.0
e 168 46 32.0
e 168 93 92.0
e 168 186 70.0
e 168 226 2.0
e 168 242 84.0
e 168 308 70.0
e 168 98 29.0
e 168 196 74.0
e 168 160 78.0
e 168 265 34.0
e 168 281 96.0
e 168 16 70.0
e 168 52 50.0
e 168 14 78.0
e 168 85 4.0
e 168 267 83.0
e 170 46 46.0
e 171 126 45.0
e 172 30 97.0
e 172 179 62.0
e 172 53 14.0
e 172 75 47.0
e 172 31 62.0
e 172 304 71.0
e 172 234 71.0
e 172 285 32.0
e 172 250 65.0
e 172 126 42.0
e 172 299 93.0
e 172 43 13.0
e 172 254 77.0
e 172 11 52.0
e 172 145 19.0
e 172 141 37.0
e 173 139 51.0
e 173 150 43.0
e 173 16 80.0
e 173 40 20.0
e 173 100 9.0
e 173 289 3.0
e 173 183 40.0
e 173 174 47.0
e 173 124 71.0
e 173 191 43.0
e 173 286 25.0
e 173 31 1.0
e 175 245 27.0
e 175 250 23.0
e 175 167 80.0
e 175 141 20.0
e 175 253 94.0
e 175 199 19.0
e 175 124 21.0
e 175 197 80.0
e 175 296 26.0
e 175 198 92.0
e 175 264 14.0
e 175 113 8.0
e 175 111 63.0
e 175 32 1.0
e 175 176 19.0
e 175 166 22.0
e 176 255 24.0
e 176 55 43.0
e 176 91 49.0
e 176 100 13.0
e 176 232 18.0
e 176 310 37.0
e 176 219 56.0
e 176 242 75.0
e 176 274 93.0
e 176 149 98.0
e 176 172 63.0
e 176 285 11.0
e 176 194 1.0
e 176 199 40.0
e 176 98 59.0
e 177 283 6.0
e 177 151 23.0
e 177 95 4.0
e 178 128 1.0
e 178 226 2.0
e 182 202 13.0
e 182 5 3.0
e 182 308 20.0
e 182 56 11.0
e 183 106 90.0
e 183 47 77.0
e 183 145 89.0
e 183 276 69.0
e 183 18 49.0
e 183 227 74.0
e 183 134 50.0
e 183 108 41.0
e 183 243 93.0
e 183 296 89.0
e 183 189 68.0
e 184 115 84.0
e 184 310 89.0
e 184 131 67.0
e 184 301 53.0
e 184 175 25.0
e 184 54 56.0
e 184 34 30.0
e 184 159 29.0
e 184 304 72.0
e 184 247 33.0
e 184 12 93.0
e 184 55 93.0
e 184 5 22.0
e 184 35 68.0
e 185 198 65.0
e 189 19 43.0
e 189 83 44.0
e 189 34 45.0
e 189 152 85.0
e 189 237 37.0
e 189 156 46.0
e 189 284 21.0
e 189 299 55.0
e 189 173 6.0
e 189 282 77.0
e 189 262 15.0
e 189 76 14.0
e 189 92 23.0
e 191 247 39.0
e 191 110 36.0
e 191 283 17.0
e 191 55 5.0
e 191 292 27.0
e 191 47 97.0
e 191 14 11.0
e 191 200 77.0
e 191 282 66.0
e 191 35 45.0
e 191 153 40.0
e 191 158 48.0
e 191 146 26.0
e 193 206 87.0
e 193 170 18.0
e 193 18 80.0
e 193 155 32.0
e 193 217 6.0
e 193 47 2.0
e 193 152 36.0
e 193 129 63.0
e 193 164 68.0
e 193 127 99.0
e 193 262 87.0
e 193 83 62.0
e 193 66 91.0
e 193 281 39.0
e 194 293 100.0
e 194 162 46.0
e 194 90 93.0
e 194 36 65.0
e 194 111 70.0
e 194 256 79.0
e 194 37 70.0
e 194 166 59.0
e 194 246 19.0
e 194 142 99.0
e 194 15 16.0
e 194 178 8.0
e 194 257 68.0
e 194 16 75.0
e 194 290 31.0
e 197 130 34.0
e 197 233 50.0
e 197 54 32.0
e 197 36 89.0
e 197 250 69.0
e 197 37 79.0
e 197 40 16.0
e 197 178 18.0
e 197 277 2.0
e 197 270 76.0
e 197 133 60.0
e 198 63 98.0
e 198 284 7.0
e 198 64 7.0
e 198 77 86.0
e 198 134 31.0
e 198 318 62.0
e 198 73 65.0
e 198 197 42.0
e 198 293 69.0
e 198 314 1.0
e 198 39 95.0
e 198 202 28.0
e 198 217 85.0
e 198 164 30.0
e 204 107 2.0
e 206 160 51.0
e 206 154 84.0
e 206 38 25.0
e 206 296 48.0
e 206 117 90.0
e 206 42 19.0
e 206 224 54.0
e 206 287 85.0
e 206 259 27.0
e 206 39 74.0
e 206 41 21.0
e 206 167 42.0
e 206 291 98.0
e 209 166 67.0
e 221 118 36.0
e 221 276 22.0
e 221 163 47.0
e 221 222 13.0
e 221 39 14.0
e 221 181 71.0
e 221 135 47.0
e 221 56 47.0
e 221 309 58.0
e 221 277 32.0
e 221 234 97.0
e 221 214 35.0
e 221 41 8.0
e 221 147 1.0
e 228 42 32.0
e 228 57 50.0
e 228 211 26.0
e 228 271 33.0
e 228 279 66.0
e 228 243 48.0
e 228 221 70.0
e 228 101 43.0
e 228 239 71.0
e 228 287 10.0
e 228 100 37.0
e 228 129 12.0
e 228 260 17.0
e 229 251 1.0
e 230 245 62.0
e 230 147 26.0
e 230 175 81.0
e 230 183 38.0
e 230 130 16.0
e 230 247 8.0
e 230 176 33.0
e 230 43 86.0
e 230 77 11.0
e 230 255 8.0
e 230 122 95.0
e 230 131 8.0
e 230 83 68.0
e 230 277 39.0
e 230 57 83.0
e 231 148 86.0
e 231 162 97.0
e 231 57 66.0
e 231 78 44.0
e 231 106 49.0
e 231 282 98.0
e 231 202 84.0
e 231 58 69.0
e 231 1 8.0
e 231 142 30.0
e 231 178 39.0
e 231 147 42.0
e 231 132 15.0
e 231 2 100.0
e 231 314 99.0
e 232 67 70.0
e 232 148 36.0
e 232 102 71.0
e 232 86 71.0
e 232 115 99.0
e 232 222 89.0
e 232 236 3.0
e 232 59 20.0
e 232 61 14.0
e 232 78 78.0
e 232 157 61.0
e 232 191 39.0
e 235 175 95.0
e 235 59 27.0
e 236 132 83.0
e 236 287 55.0
e 236 95 29.0
e 236 79 92.0
e 236 199 49.0
e 236 291 24.0
e 236 177 44.0
e 236 125 5.0
e 236 59 9.0
e 236 184 43.0
e 237 63 47.0
e 237 176 89.0
e 237 84 49.0
e 237 64 59.0
e 237 210 90.0
e 237 65 3.0
e 237 68 14.0
e 237 302 60.0
e 237 69 44.0
e 237 304 16.0
e 237 227 97.0
e 237 70 68.0
e 237 137 95.0
e 237 229 88.0
e 240 68 11.0
e 241 293 4.0
e 243 253 6.0
e 243 255 23.0
e 243 238 100.0
e 243 160 59.0
e 243 168 47.0
e 243 195 70.0
e 243 93 41.0
e 243 180 93.0
e 243 315 9.0
e 243 245 40.0
e 243 193 85.0
e 243 229 32.0
e 243 68 44.0
e 243 69 14.0
e 245 168 65.0
e 245 69 21.0
e 245 197 37.0
e 245 129 85.0
e 245 70 85.0
e 245 142 52.0
e 245 261 89.0
e 245 162 23.0
e 245 73 62.0
e 245 79 90.0
e 245 260 100.0
e 245 84 27.0
e 256 70 12.0
e 256 259 72.0
e 256 85 72.0
e 256 289 30.0
e 256 275 76.0
e 256 2 32.0
e 256 87 17.0
e 256 88 88.0
e 256 89 66.0
e 256 90 66.0
e 256 148 21.0
e 256 105 30.0
e 256 171 12.0
e 256 309 56.0
e 256 312 91.0
e 257 239 75.0
e 257 204 69.0
e 257 217 45.0
e 257 275 11.0
e 257 197 94.0
e 257 182 24.0
e 257 259 61.0
e 257 189 27.0
e 257 255 56.0
e 257 73 70.0
e 257 256 46.0
e 257 193 4.0
e 259 231 87.0
e 259 87 83.0
e 259 149 64.0
e 259 152 64.0
e 259 163 35.0
e 259 116 14.0
e 259 125 68.0
e 259 308 15.0
e 259 110 34.0
e 260 150 9.0
e 260 289 13.0
e 260 263 97.0
e 260 261 78.0
e 260 203 25.0
e 260 204 58.0
e 260 220 49.0
e 260 88 28.0
e 260 206 76.0
e 260 89 73.0
e 260 125 10.0
e 263 89 35.0
e 263 253 11.0
e 263 234 39.0
e 263 153 16.0
e 263 292 28.0
e 263 2 9.0
e 267 90 48.0
e 267 264 18.0
e 267 3 32.0
e 267 163 49.0
e 267 240 59.0
e 267 91 50.0
e 267 92 85.0
e 267 155 57.0
e 267 248 95.0
e 267 272 6.0
e 267 93 93.0
e 268 303 46.0
e 268 91 9.0
e 268 214 95.0
e 268 227 58.0
e 268 191 25.0
e 268 92 39.0
e 268 305 7.0
e 268 311 65.0
e 268 132 79.0
e 268 96 16.0
e 268 167 36.0
e 268 222 39.0
e 268 252 56.0
e 268 159 19.0
e 269 220 54.0
e 269 96 24.0
e 269 112 79.0
e 269 97 42.0
e 269 127 81.0
e 269 187 59.0
e 269 259 25.0
e 269 102 49.0
e 269 171 82.0
e 269 248 10.0
e 269 113 78.0
e 269 235 40.0
e 269 99 57.0
e 269 154 48.0
e 269 204 95.0
e 270 155 2.0
e 271 97 88.0
e 271 253 12.0
e 271 259 53.0
e 271 156 15.0
e 271 99 92.0
e 271 133 90.0
e 271 3 99.0
e 271 265 36.0
e 271 102 32.0
e 271 306 80.0
e 271 164 39.0
e 271 290 73.0
e 271 193 97.0
e 277 247 70.0
e 277 157 27.0
e 277 99 53.0
e 277 318 19.0
e 277 194 28.0
e 277 268 49.0
e 277 113 48.0
e 277 106 84.0
e 277 311 59.0
e 277 236 19.0
e 277 232 77.0
e 277 107 20.0
e 282 96 89.0
e 282 221 70.0
e 282 237 83.0
e 282 133 11.0
e 282 134 62.0
e 282 183 74.0
e 282 194 44.0
e 282 238 59.0
e 282 318 30.0
e 282 249 63.0
e 282 107 89.0
e 289 108 25.0
e 289 292 89.0
e 289 220 35.0
e 289 109 88.0
e 289 112 21.0
e 289 114 99.0
e 289 246 12.0
e 289 158 67.0
e 289 136 93.0
e 289 115 2.0
e 289 116 31.0
e 301 210 31.0
e 301 233 83.0
e 301 263 55.0
e 301 136 38.0
e 301 185 55.0
e 301 108 92.0
e 301 206 3.0
e 301 216 68.0
e 301 168 34.0
e 301 157 39.0
e 301 109 30.0
e 301 112 89.0
e 302 198 12.0
e 302 177 51.0
e 302 158 9.0
e 302 109 38.0
e 302 194 82.0
e 302 114 35.0
e 302 188 54.0
e 302 267 91.0
e 302 256 58.0
e 302 215 53.0
e 302 116 11.0
e 302 274 16.0
e 302 118 84.0
e 302 221 43.0
e 302 119 28.0
e 304 136 37.0
e 304 240 90.0
e 304 159 62.0
e 304 165 22.0
e 304 273 86.0
e 304 114 54.0
e 304 119 39.0
e 304 137 59.0
e 304 138 65.0
e 304 139 51.0
e 304 298 10.0
e 304 169 4.0
e 304 185 82.0
e 306 259 38.0
e 306 311 78.0
e 306 138 3.0
e 306 206 55.0
e 306 270 46.0
e 306 180 35.0
e 306 139 81.0
e 306 165 48.0
e 306 170 95.0
e 306 171 72.0
e 306 172 99.0
e 306 188 90.0
e 306 248 93.0
e 308 271 10.0
e 308 198 51.0
e 308 195 53.0
e 308 207 54.0
e 308 165 17.0
e 316 177 15.0
e 318 235 56.0
e 318 170 75.0
e 318 292 71.0
e 318 172 91.0
e 318 173 81.0
e 318 176 100.0
e 318 180 56.0
e 318 260 21.0
e 318 181 38.0
e 318 182 40.0
e 318 252 43.0
e 318 183 92.0
e 318 184 35.0
e 319 243 33.0
e 319 173 78.0
e 319 282 87.0
e 319 182 1.0
